NAME : P = NP
TYPE : TSP
DIMENSION : 30
EDGE_WEIGHT_TYPE : EUC_2D
NODE_COORD_SECTION
0 169 326
1 53 386
2 313 481
3 273 35
4 86 738
5 390 125
6 342 646
7 99 51
8 71 856
9 120 36
10 58 481
11 230 54
12 444 77
13 344 183
14 122 66
15 28 104
16 117 249
17 69 74
18 176 430
19 324 418
20 600 52
21 218 246
22 431 3
23 161 175
24 604 240
25 18 381
26 197 398
27 5 231
28 75 538
29 674 224